
Gurobi 9.1.2 (win64) logging started Tue Dec  7 10:33:09 2021

Gurobi Optimizer version 9.1.2 build v9.1.2rc0 (win64)
Thread count: 8 physical cores, 8 logical processors, using up to 8 threads
Optimize a model with 1 rows, 45 columns and 44 nonzeros
Model fingerprint: 0x3b161315
Variable types: 1 continuous, 44 integer (44 binary)
Coefficient statistics:
  Matrix range     [1e+00, 1e+01]
  Objective range  [1e+00, 1e+00]
  Bounds range     [3e+00, 3e+00]
  RHS range        [1e+01, 1e+01]
Presolve time: 0.00s
Presolved: 1 rows, 45 columns, 44 nonzeros
Variable types: 1 continuous, 44 integer (44 binary)

Root simplex log...

Iteration    Objective       Primal Inf.    Dual Inf.      Time
       0   -2.7491537e+00   5.171607e-02   0.000000e+00     14s
       3   -2.7491537e+00   0.000000e+00   0.000000e+00     14s

Root relaxation: objective -2.749154e+00, 3 iterations, 0.00 seconds

    Nodes    |    Current Node    |     Objective Bounds      |     Work
 Expl Unexpl |  Obj  Depth IntInf | Incumbent    BestBd   Gap | It/Node Time

*    0     0               0      -2.7491537   -2.74915  0.00%     -   14s

Cutting planes:
  Lazy constraints: 2

Explored 0 nodes (5 simplex iterations) in 14.51 seconds
Thread count was 8 (of 8 available processors)

Solution count 1: -2.74915 
No other solutions better than -2.74915

Optimal solution found (tolerance 1.00e-04)
Best objective -2.749153732973e+00, best bound -2.749153732973e+00, gap 0.0000%

User-callback calls 69, time in user-callback 18.24 sec
